unknown
(model
; cardinality of BoundSet is 1
(declare-sort BoundSet 0)
; rep: @uc_BoundSet_0
(declare-sort UnboundSet 0)
(define-fun IsOnSlide ((BOUND_VARIABLE_338 BoundSet)) Bool true)
(define-fun IsSmall ((BOUND_VARIABLE_338 BoundSet)) Bool false)
)
